p cnf 20 18
r 0.634 1 3 5 7 9 11 13 15 17 19 0
e 2 4 6 8 10 12 14 16 18 20 0
1 3 4 0
-1 -3 -4 0
3 5 6 0
-3 -5 -6 0
5 7 8 0
-5 -7 -8 0
7 9 10 0
-7 -9 -10 0
9 11 12 0
-9 -11 -12 0
11 13 14 0
-11 -13 -14 0
13 15 16 0
-13 -15 -16 0
15 17 18 0
-15 -17 -18 0
17 19 20 0
-17 -19 -20 0
